nNurses = 61;
nHours = 28;
minHours = 5;
maxHours = 8;
maxConsec = 7;
maxPresence = 10;
demand = [13, 8, 11, 13, 12, 12, 14, 13, 17, 16, 15, 11, 8, 5, 5, 8, 13, 15, 11, 15, 11, 10, 6, 6, 7, 6, 8, 13];
